Li
1.0
15.000000 0.000000 0.000000
-0.000000 15.0000 0.000000
0.000000 0.000000 15.00000
Li
1
direct
0.500000 0.500000 0.500000 Li
