ALGO = Fast
EDIFF = 0.00001
EDIFFG = -0.02
ENCUT = 1000
IBRION = -1
ICHARG = 1
ISIF = 7
ISMEAR = 1 
ISPIN = 2
LORBIT = 11
LREAL = Auto
MAGMOM = 0.6
NELM = 100
NPAR = 4
NSW = 0
PREC = Accurate
SIGMA = 0.05
NBANDS = 40
LOPTICS = True
