pymatgen generated KPOINTS with grid density = 616 / atom
0
Gamma
1 1 1
